27.56 0.24 2.73 11.52 0.11 2.14 15.69 0.23 3.66 13.3 0.27 2.03
19.27 0.17 4.02 16.28 0.19 2.85 25.77 0.29 2.76 11.82 0.28 3.17
29.55 0.2 3.95 24.26 0.19 2.57 21.88 0.19 4.54 15.27 0.15 3.4
23.72 0.26 4.25 28.02 0.12 4.58 29.04 0.19 2.51 16.51 0.16 2.18
24.54 0.19 4.82 26.93 0.18 3.07 21.32 0.15 3.7 17.56 0.25 2.47
27.93 0.11 3.73 29.37 0.22 4.79 14.62 0.23 2.15 18.1 0.23 3.05
22.72 0.13 3.99 21.19 0.12 3.01 11.92 0.11 2.03 26.37 0.16 3.81
25.89 0.22 2.61 19.13 0.13 4.33 16.5 0.29 2.19 29.65 0.25 4.56
24.86 0.26 2.66 18.43 0.29 4.85 17.48 0.18 2.06 25.32 0.16 2.46
26.67 0.26 2.37 17.64 0.22 2.65 13.08 0.3 3.96 21.93 0.3 2.45
